DATASET = "thpack4";
INSTANCE = "093";

WIDTH = 233;
HEIGHT = 220;
LENGTH = 587;

NO_OF_SHAPES = 10;
size = [|
  78,69,37 |
  115,90,58 |
  68,53,20 |
  119,71,47 |
  100,82,57 |
  88,76,52 |
  95,90,43 |
  87,72,62 |
  80,66,47 |
  120,78,67 |
|];

verticality = [|
  0,1,1 |
  1,1,1 |
  0,0,1 |
  0,1,1 |
  1,1,1 |
  1,1,1 |
  0,0,1 |
  1,1,1 |
  1,1,1 |
  1,1,1 |
|];

box_count = [
  5,
  8,
  9,
  6,
  7,
  5,
  9,
  14,
  6,
  9,
];
